c LRAT-TRIM Version 0.2.1-dev trims LRAT proofs
c Copyright (c) 2023-2025 A. Biere, F. Pollitt, Univ. Freiburg
c reading CNF and LRAT files
c backward checking trimmed clauses after trimming proof
c reading CNF from 'D:\Projects\carrollian\data\evidence\ss_sat\benchmarks\scaled\xor_parity_8_unsat.cnf'
c found 'p cnf 8 256' header
c parsed CNF with 256 added clauses
c parsing original CNF took 0.00 seconds and needed 0 MB memory
c reading proof from 'D:\Projects\carrollian\data\evidence\ss_sat\proofs\scaled_cadical_lrat\xor_parity_8_unsat.cadical.lrat'
c parsed original proof with 135 added and 0 deleted clauses
c parsing original proof took 0.00 seconds and needed 0 MB memory
c trimmed 256 original clauses in CNF to 256 clauses 100%
c trimmed 135 added clauses in original proof to 135 clauses 100%
c trimming proof took 0.00 seconds
c backward checking proof took 0.00 seconds
s VERIFIED
c checked 135 clauses 0 per second
c resolved 553 clauses 4.10 per checked clause
c assigned 1059 literals 7.84 per checked clause
c maximum memory usage of 0 MB
c total time of 0.00 seconds
